Reproduction of the Original Problem/Instances/S2-10/S2-5-10-3-l.txt
     200      10    0.05
       1       1       1       3       1       2       3       2       2       2       1       4      14       5       0       7      14       3       0      12       6
       2       1       2       3       2       3       1       1       3       3      11       9       9       9       2       3       4      14       5       9       7
       3       2       3       1       1       3       1       3       2       3       4       5       7       2       9      12       1       3       0       5       6
       2       1       3       3       1       1       3       1       3       1       6      13      10       3      14       8      16       0      11       7       6
       3       3       3       2       2       2       1       2       2       3       1       6       3       1      12      16      13       9      13      16       4
       3       3       2       1       3       2       2       3       2       3      11      11       3       9      16       1       2       0      16      14       5
       3       1       1       3       2       1       2       1       2       2      11      11       7      13      14      13      13      16       2       5       5
       2       2       1       3       1       3       2       3       1       2       7      14       6       8       5       5       0      13      14       9       5
       1       3       3       1       1       1       2       2       2       1      15       7      16       9       5       0       1      14      10      13       6
       2       1       1       1       2       3       3       3       3       1      11       2       4       9      11       3      10      12      12      13       5
       2       3       1       1       3       2       3       1       2       2      10      16      14      11      15       1      13       0      10       9       6
       1       1       2       1       1       3       2       3       1       3       9       7       8      11       7       9       0       7      12      11       6
       3       2       2       2       1       2       3       3       1       2      12       6       0       2       7       6      15       6      10      12       5
       1       1       1       1       1       3       1       3       1       2       9       8       9      12       9      11       7      12      11       2       4
       3       3       1       3       1       1       1       3       2       2       9       1       6      14       9      12      13       0       9      16       5
       1       1       1       1       1       1       1       3       2       1       5       0       7      13      11       2      14       5      15      12       5
       2       3       1       3       1       3       3       3       1       1      11       3       9       3      14       6      16       4      11       5       4
       1       3       1       2       2       2       3       3       2       2      11       6       3      11      16       0      15      10      12       0       7
       3       1       2       2       2       2       2       1       3       1      13      11       0      14      10      15       0      11       9       7       6
       3       2       2       3       1       2       2       1       1       1       8       4       8       6      13       4       0       8      11       4       5
       3       2       1       2       3       3       1       2       2       2       3       2       8       4       5      14      15       7       2      11       6
       2       2       3       1       2       2       1       1       1       2      15       7       7      16       3      12       3       1      11       8       5
       2       1       3       3       3       3       3       1       2       3      16      16      10      15       5      12       6       7       6       0       4
       2       1       3       3       1       1       3       2       3       1      15      15       0       4       4      13      15       8      15       1       5
       1       2       2       3       3       1       1       2       1       1      13       0      10      15      10       0      16       1       9       0       4
       2       2       3       2       1       2       1       3       3       3      16       9       3      16       6      14      16      10       4       5       5
       2       3       1       2       1       2       1       2       2       2      11       9      13      11       0      16      12       3      11       8       5
       2       1       3       2       1       1       3       3       2       1      13       9      12      13      10       6       1       3       6       0       7
       2       1       2       1       1       1       2       1       1       2      16       6       2       9      13       6       6      16      16       1       7
       1       1       2       2       2       2       2       1       2       1       1       8      16       2      12      12      15       8       9       5       5
       3       1       2       2       2       2       2       2       3       1       2       8       3       2       1      14       7      11       7       3       4
       2       2       1       3       2       2       2       2       2       3       9      10      15      11      14      13       3      16       9       7       6
       2       1       1       2       2       2       1       2       2       3      15       0       6       1       9      11      10      15      13       1       5
       2       2       1       2       2       3       3       2       3       2      10       6       0       5      15       8      10      12       1       3       7
       1       3       2       3       3       3       1       3       2       1       7       2      13       2       1       2      16       8      14      14       7
       1       3       3       2       3       1       2       2       2       2      15      11      10      10      12       4      11      11       0      15       4
       1       3       3       2       2       1       3       3       1       1      12      11       8      10       3       3       9       2      16      13       7
       3       2       1       3       1       2       3       3       3       2       1       7       1      10       9      15       9       1       0      11       4
       3       2       2       1       2       1       2       1       2       3       9      11      10       6       2       5      12       9      11       0       7
       2       2       3       1       3       3       3       1       3       2       9       5       9       4      10      16      12       4       8       9       7
       1       2       2       3       3       3       2       1       1       2       4       2       5       0       9       1       8       3       1       5       7
       3       1       3       3       2       3       1       1       3       3       4       8       4       3       9       4       0      13       2       9       7
       1       1       1       3       2       3       1       2       2       3       7       6       7       9       9      15       7       8      12       8       5
       1       2       3       2       3       3       3       2       1       2      12      16      15       8       8       9      15       8       6      11       5
       2       1       3       3       1       2       3       1       1       1       4       7       8      12       9      11       7       9       0       5       6
       1       2       1       2       2       2       1       2       1       2       3      15      11       8       6       9      16       2       6       7       4
       3       1       3       3       2       1       3       2       2       2       4      11      12      12       0       0      11      15      10       7       7
       3       1       1       3       1       3       1       1       1       3       4      16      11       7       4       9       7      16      15       9       4
       3       2       2       3       2       3       1       1       2       1      10       7       5      15      13       5      12       6       7       5       4
       1       3       3       3       2       2       3       3       2       2       8      12       6       3      15       5      13      16       4       8       5
       2       1       2       3       2       1       3       1       3       2       9      16       1       2      13      11       6       7      13       4       6
       3       2       3       3       2       2       1       2       2       3       6       1       9       1       4       2       8      11       4      15       7
       1       1       1       2       2       3       1       1       3       1       8      12       2       1       7       7      15      15      12      12       5
       1       2       2       2       3       3       2       3       1       2      10       7       6      15       1       6       5      16      13      12       7
       1       3       3       1       3       3       3       1       3       2       5       4       4       9       6       1       6       4      15      12       6
       1       1       2       3       2       3       2       1       3       3       8       8       1       4      11       4      15      11      13      11       5
       1       1       1       3       2       1       2       1       1       3      10       2       4      10       0      12      10       9       0       1       7
       2       2       3       3       2       3       1       2       2       3      11       8       1      13       1      11      11       7       4       9       5
       3       2       3       3       1       3       1       1       2       2       9      13       1       7       4       4       8       7      12       3       4
       1       2       1       3       2       2       1       1       2       3      14       3       8       7       1      11       4       6       1       7       7
       1       1       2       3       3       3       2       1       1       1       1       9      12      11       6       1      11       7       9      14       6
       3       2       2       1       1       3       1       3       2       3      16       7      15       7       6       0      13      10       2       5       6
       1       1       3       3       3       1       2       1       3       3      15       5       0       2      15       0      16      14      10      15       7
       2       2       1       2       2       2       3       3       1       2       9       9       3       8      12       5      13       4       7       1       5
       3       1       1       1       2       1       3       2       1       3       9       3       0       4       9       9       1      16       9       9       7
       1       3       2       1       1       2       1       1       1       3      14       7      15      15      10       1       3      11      11      11       5
       3       3       3       3       2       2       1       3       3       2       5       5       1       6       8       8       5       0      11      12       5
       1       3       1       2       2       1       3       2       3       2      14       2      13      10       5      16       2      14      11       8       4
       1       3       1       1       3       3       3       1       3       1      14       6       8      10       3      16       5      14       6       9       5
       2       2       1       3       2       2       2       1       2       3       9       3       3       3       7       3      12       2       9       5       5
       3       2       3       1       3       3       1       3       3       1       8       1       9       1      14       1      11       5      15       0       7
       2       2       3       2       1       2       3       1       2       1      12      12      14      12      15       5       4       2      14       7       4
       1       3       2       1       1       1       3       1       1       2       6       8       6       5      11       5      13       4       7       5       5
       3       1       3       1       1       2       3       1       1       2       0       0       0       1      12       9       1       4       5      11       4
       3       3       1       3       3       1       2       1       2       1      14      10      11       0      13       5       5       8       5      14       7
       3       1       1       2       3       3       3       1       1       1       4       0       1      11       1      16      16       3      13      16       4
       1       2       3       3       3       2       3       1       2       2       5       0      13      16      13       9       8      12      10      12       4
       3       2       1       2       1       1       3       2       3       2      15      11       2       2       7      14      12      14      11       6       4
       3       2       1       2       1       3       3       3       3       1       0       2       3      13       8      16       6       2      12       1       4
       2       2       2       1       3       2       1       1       1       3       0       1       7      16       9       8       3       5       2      15       5
       2       1       1       2       1       2       2       1       2       2       4      14       9       3      11       4      11      12      16       5       6
       2       3       3       1       3       3       1       2       2       3      12       4       4      16      11       9      14      14       5       3       4
       1       2       3       3       2       2       1       3       2       2       5      13       1       6       6       8      11       0      15      11       4
       2       2       2       1       1       3       1       3       1       3       1       0       4       6      11       1       8      14       1      11       6
       1       1       1       3       1       2       2       1       2       1      12       1      15       9      13       8       7      13       2       6       4
       1       2       1       1       1       3       1       2       1       3       0       6       3      15      13      12       7       2       2      15       5
       1       2       1       1       3       2       1       3       2       2      13       2       7      14      10       8       9      15       9       1       6
       1       2       2       3       3       3       1       3       3       1      16       5       2      13       4       4       7       4      12      12       4
       3       3       1       1       3       1       3       3       1       2       2       1      11      13      15      15       7       4       0       8       6
       3       3       1       1       1       1       2       1       1       1       6       2       0      15       3      10       3       6       7      16       5
       2       2       2       1       3       3       2       3       1       3      13      13      15       9      14       1      14       5       8       9       6
       1       3       1       3       3       3       1       2       3       1       8       1       6       4       6       8       2       0       6       7       7
       2       2       1       3       1       2       1       3       3       2      15      10      10       9       2       2       0       0       1      12       6
       3       2       2       2       1       3       2       1       1       2       0       3      11      10      12      14      11       9      11      14       7
       3       1       2       1       1       3       3       2       3       2       0       8       8       3      10      15       6      13       8      12       5
       1       1       1       3       2       2       1       3       1       2       4      16      12       9       1      11      13       0       2       9       5
       2       3       3       1       2       2       3       1       2       3       7      16      15       5       1      15       4       2      14      15       4
       3       2       1       3       2       3       2       1       3       2      13       4       1       1       2      13       3      15      12      16       4
       2       2       2       1       1       2       3       2       3       2       8       4       9       6       9       8       3       5       4      13       4
       2       1       1       2       1       1       2       2       2       2       4       0       9       9      13       6       6       6       4       6       6
       2       3       3       3       2       3       2       3       2       1       8       9       2      10       9      15      15      12      15      11       7
       1       1       3       3       1       1       3       3       3       2       4       6       8      11       8       8      12       3      15       0       4
       1       1       3       2       2       3       3       1       1       1       4       8       9       9       5      13      13      16      10       0       5
       2       1       1       3       2       1       1       1       3       1      12      16       3       1       0      10      10       5      14       1       7
       3       1       2       1       1       3       2       1       2       1       7       4       7      15       5      11      13       9      15       6       7
       2       2       2       3       1       1       2       1       2       2      14      16      15       3       8       3       4      15       9       3       5
       2       3       1       3       3       3       2       3       2       2       9       8      10       3       3       9       8      15      12      16       7
       3       2       2       1       2       2       1       3       1       1       2       4      12       6       2      15       4      16       0       4       6
       1       3       1       1       3       3       1       3       2       3      16      13       6      12       6       8       0       8      14       3       4
       3       1       2       1       3       1       3       2       3       1      15      13      12      13       9       0       8      14       7       1       4
       2       2       2       1       2       2       3       1       3       3       5       8       0      14       6      12       0      16       8       5       6
       3       1       3       3       3       2       1       1       1       1       8      11      11       3      16      13      12      12       0      13       6
       3       1       1       2       1       2       2       1       3       2       1       9      12       2      13       5       2       7       6      15       7
       2       1       2       3       1       2       2       1       2       1       1       9       1       4      10      11       7       9      11       3       4
       1       2       2       1       1       2       1       1       3       3      11       8      12      16       8      12      12       6       9       9       7
       2       2       3       3       3       2       1       2       1       2      13      13       3       9       3      16       6       8       8       5       4
       1       1       2       1       1       1       3       2       2       3      15      12      13       5      12       5      10       1       3       0       7
       2       1       3       3       2       2       3       1       2       1      14       2       4      11       0       7       8       8       6       0       4
       1       1       2       2       1       2       3       2       2       2      11       5       7      11      11       9      13       4      12      11       4
       2       1       2       2       3       1       3       1       2       2       4      11      13       1      14      16      14       3      16      12       6
       3       3       1       3       1       1       2       3       3       2       2      13      13      13       5       7       3      15      15       9       5
       1       2       1       2       1       1       2       2       2       2       2      10       4       4      14      12       1      14      15       5       4
       1       1       3       2       2       1       2       2       1       3       0      14       3       4      14       2      12      15      14       0       7
       3       2       1       1       2       3       2       2       3       1       9       8       9       5       1       5       1       5       0      11       6
       1       1       3       3       1       3       2       2       2       3       0      10      12      13      16       7       4       9       3       6       4
       3       2       1       1       2       1       2       1       3       1       8       2      16      16       7       4      12      16       0       2       4
       3       2       3       2       1       3       1       3       2       1      15       5       6       6      13      11       6      16       9       7       4
       3       1       2       1       2       2       1       3       3       2       6       9       6       2      11       6      13      15      13      16       5
       2       3       1       2       2       3       2       2       1       1      15      10      11      10      10      16       1       2       9       6       7
       1       1       2       3       2       1       3       2       3       1       0       3      14       3      10       7      11      10      15       8       4
       1       3       1       3       1       1       3       1       1       2       4       5       1       6      15      11      11       3       2       9       5
       1       1       3       2       1       1       1       3       2       3       0       7      15       1      13       8       9       0      16       6       6
       2       2       2       3       3       3       3       2       1       3       8       9       1      15      11      15      14      15       4       0       5
       1       2       1       3       3       3       1       3       1       1      12       1      11       5       8       3       1       9       9       9       6
       3       1       3       2       1       3       3       3       3       2       1      12      15       8      14       9      14      12      13      12       4
       2       1       1       1       3       2       3       1       1       3      15      10      16       7       1      10      12      14       2       7       5
       2       1       2       2       3       1       3       3       3       1       1      11      16      13      13      11      15       2      12       1       6
       1       2       2       1       3       2       3       1       1       2      12       4       6      15       5       8      12       8       6       2       4
       3       3       2       3       1       3       2       3       1       1      14       5      16       4       3      12      16      10       6      11       7
       3       3       2       1       3       3       3       3       2       1      10      15       9      13       5       4       2       5       1       9       4
       3       3       2       1       3       3       1       2       3       1       3       7      11      16      11      15       2       9      11       7       6
       1       1       1       1       1       1       3       2       1       1       4       8      13       2       2      12       9       7       1      13       4
       2       1       1       2       2       1       3       2       1       2       4       8       2       8       5       9      12       7       6       2       4
       1       3       1       1       2       1       2       3       1       1      13       4       4      13       6       5       2       9      12       3       4
       2       3       2       3       2       1       2       2       2       1      10      11       6      13       0       1       9      13       7      12       6
       3       3       3       3       3       1       2       2       3       2      14      11       4       1      12       1       1       6      15       4       6
       3       1       2       3       2       1       1       2       3       2      15      10       3       2      11       2      10      12       7       8       7
       3       3       1       2       2       3       2       3       1       1      12       5      16       7       3      12       6       0       9       3       4
       1       2       2       1       2       1       1       2       1       2       5      11      10       5      15       7       3      11       4      16       5
       3       2       3       2       2       3       2       3       2       1      13       0       2       2      12      13      10      10       7      11       6
       2       3       3       1       3       2       1       1       1       2       9      15       3       5       2       9      16       6       2      12       4
       2       3       3       2       2       2       3       2       1       3      16       3       4      16       3       8       7      11       0      10       6
       2       3       2       2       2       1       3       1       2       3      14       2       8       8      12       9       2       5       8      16       6
       1       2       1       2       1       3       1       2       3       1       5       5       4       0       0       0       3      16       8       3       6
       2       1       2       2       1       3       2       2       3       1      14       9       3       9       8      10       0      13      12       6       4
       2       3       3       3       3       2       2       1       2       1       5      12      11       8       5      13      13      13       2      16       5
       3       2       3       2       1       2       2       2       3       2       8      12       4       6       2       0      13       9       0       1       7
       1       1       3       2       1       3       2       1       1       2       5       4       5       0      12       3      11       4      14      15       5
       1       1       3       2       1       2       3       1       3       2       0      11      15       6       8       5      10       4      13      10       7
       2       2       3       2       1       3       1       1       2       1       3      16      16       5      15       6      13       2       1      11       7
       3       1       1       1       2       3       1       2       3       1      14      15      11      10       3      11       5      10       0       4       4
       3       1       3       1       2       2       2       3       3       2       9       7       0      13       0       1       1       9       7       8       5
       1       2       2       2       1       2       3       3       2       1       5      11      12      16      16      16      11      13       5       4       6
       1       3       1       1       3       3       3       1       1       3       9       2       5       4      13       8      10       5       8       9       7
       2       1       3       2       3       3       1       2       3       1       4       9      15      10      14       2       3       4      14       8       6
       2       2       1       3       3       2       1       2       2       2       9       0       9       0       4      10      13       4       5       6       5
       2       3       3       2       3       2       2       3       1       3       6      11      16      10       0       5       0      16      16       1       6
       2       1       2       3       2       1       1       1       1       2       9       9       4       2      15       9       0      16       0      15       6
       3       1       2       2       2       3       3       3       2       1      13       2       6       7      10       5       3      13      11       0       5
       1       2       2       1       1       3       2       1       1       3      10      13       1      10       1      13       7      15       5      11       7
       3       3       2       1       3       2       2       1       3       2       3       5      10       5       7      11      14      12       6       9       6
       2       1       2       3       2       3       1       3       3       3       9       2       6      15       6      11      14      13      14       0       6
       2       3       2       1       2       2       2       1       2       2       3       2      14      13       4      11      16       1       6       3       5
       2       2       1       3       1       1       2       3       1       2       6       0       6       6       0      10      15       2       8       8       5
       1       2       2       2       3       3       1       3       3       1      14       5      11       1       1       1       9       9       4       6       5
       1       3       3       3       1       2       3       1       3       1       2       0      11      14      15      15      11       6       1       0       7
       2       1       3       3       1       2       2       1       1       1       5      14       8      10       0      11       8      13       6       6       4
       2       2       2       3       2       3       2       3       3       3      13       9       8       2       9       4       0      15       4       9       5
       3       1       3       1       1       2       2       3       3       1      15       7       6       0       5      15       2       8      16       6       7
       3       1       3       1       1       1       2       3       1       3       6       6      14       9       3       0       5       4       5      10       5
       3       2       3       1       2       3       3       2       2       2       8       6      10      11      10       2       1       6       1      12       7
       1       1       2       1       1       1       1       2       3       2      11       9       7       3      12       0      16      15       8       9       6
       2       1       2       1       2       1       3       2       2       3       5       6       3      13       7       9      10      15       7      11       6
       3       1       2       2       3       3       2       2       1       2       4      11      13       7      14      13      11      15       1       3       6
       3       2       1       3       2       2       1       2       1       1       6      12      14       3      15      12       7      10       5      10       6
       3       3       1       2       3       1       2       1       3       2       8       2      10       0      15       9      14      13       8       0       4
       1       2       1       2       1       1       2       3       2       2      15       1       3      15       1      11       3      11      13       6       7
       3       3       3       1       3       1       3       1       1       1       2       2       7      12      10      14       8      14       6      15       4
       1       1       2       1       2       3       1       2       2       2      14      12      16      14      10       8      10       1       3       8       4
       1       2       2       2       2       3       3       2       2       2      14       2       6       9      12      15       9       2      11       1       7
       3       3       3       1       3       3       3       3       2       3       0       2       2      11       8       7       1       6      14      14       5
       1       1       1       2       1       2       2       3       3       2      16      13       0       2       5      11      14       8      15      14       5
       2       1       2       2       2       1       1       2       2       2       1       4      13       7      13       7       8      10       0      13       5
       1       2       3       1       2       2       3       2       2       3       7       9       3       6       9      13       7       7      16      10       4
       3       1       2       3       3       2       2       2       3       3       4       0      14      12       0       6      15      16       8       3       4
       1       3       2       3       3       2       1       1       3       1       0      13       8      15       7       7       5       5       4       3       6
       2       2       3       1       1       1       2       3       1       3       8       7       0       6       8       0       4       6      15       2       6
       2       3       1       3       3       2       2       1       1       2       4       6       2       1       4       0      11       9      14      15       4
       3       2       2       2       3       3       2       1       3       1      10       0       6       5      15      11      15      16      14       4       7
       2       3       2       2       2       2       3       1       3       2       7      13       8       7       1       0      13      16       1      15       6
     114     154     140     150     187     116     189     120     125     165
     216     216     216     432     216     432     432     216     432     216
     533     396     462     530     903     483     568     612     453     808