Reproduction of the Original Problem/results-log/S2-10/S2-5-10-3-l.log
CPXPARAM_Read_DataCheck                          1
Found incumbent of value 0.000000 after 0.00 sec. (0.05 ticks)
Tried aggregator 1 time.
MIP Presolve eliminated 4 rows and 0 columns.
MIP Presolve modified 1 coefficients.
Reduced MIP has 227 rows, 2010 columns, and 9230 nonzeros.
Reduced MIP has 2010 binaries, 0 generals, 0 SOSs, and 0 indicators.
Presolve time = 0.00 sec. (3.55 ticks)
Probing time = 0.00 sec. (1.60 ticks)
Tried aggregator 1 time.
Reduced MIP has 227 rows, 2010 columns, and 9230 nonzeros.
Reduced MIP has 2010 binaries, 0 generals, 0 SOSs, and 0 indicators.
Presolve time = 0.00 sec. (3.97 ticks)
Probing time = 0.00 sec. (1.60 ticks)
Clique table members: 2000.
MIP emphasis: balance optimality and feasibility.
MIP search method: dynamic search.
Parallel mode: deterministic, using up to 4 threads.
Root relaxation solution time = 0.02 sec. (6.82 ticks)

        Nodes                                         Cuts/
   Node  Left     Objective  IInf  Best Integer    Best Bound    ItCnt     Gap

*     0+    0                            0.0000    12473.0000              --- 
*     0+    0                          817.0000    12473.0000              --- 
      0     0     7159.6650    10      817.0000     7159.6650      452  776.34%
      0     0     5733.7301   205      817.0000     Cuts: 156      978  601.80%
*     0+    0                         4201.0000     5733.7301            36.48%
      0     0        cutoff           4201.0000     4201.0000     1527    0.00%
Elapsed time = 0.19 sec. (135.91 ticks, tree = 0.01 MB, solutions = 3)

Clique cuts applied:  257
Cover cuts applied:  2
Implied bound cuts applied:  2
Mixed integer rounding cuts applied:  20
Zero-half cuts applied:  4

Root node processing (before b&c):
  Real time             =    0.19 sec. (136.06 ticks)
Parallel b&c, 4 threads:
  Real time             =    0.00 sec. (0.00 ticks)
  Sync time (average)   =    0.00 sec.
  Wait time (average)   =    0.00 sec.
                          ------------
Total (root+branch&cut) =    0.19 sec. (136.06 ticks)
